NAME:  inst7_12
TYPE: ATSP
COMMENT: Asymmetric TSP (Fischetti)
DIMENSION:  12
EDGE_WEIGHT_TYPE: EXPLICIT
EDGE_WEIGHT_FORMAT: FULL_MATRIX 
EDGE_WEIGHT_SECTION
    0  370  975  505  865  530  401  465  657  498  604  589
    888  0  580  816  453  462  377  833  463  919  586  251
    673  321  0  218  700  852  907  498  285  544  125  972
    307  511  266  0  438  987  138  933  523  847  853  144
    766  400  513  482  0  779  365  191  804  289  615  551
    682  639  922  169  156  0  596  625  485  192  389  248
    728  408  406  141  324  108  0  763  412  924  898  795
    936  216  436  290  377  875  960  0  877  335  998  892
    572  789  914  135  125  485  663  798  0  150  908  757
    550  110  376  255  211  877  160  938  890  0  181  976
    680  349  908  608  372  107  668  677  655  230  0  897
    944  410  232  959  770  331  525  790  466  211  723  0
EOF
